webassembly/ejemplos_dzn/folder13_json_20.dzn
TERM = { '.', 'in_1', 'local_0', 'local_1', 'in_6', 'in_2', 'in_4', 'in_3', 'in_8', 's(0)', 'in_7', 'in_5', 'in_0'};
null = '.';
s = 13;
n = 15;
ndeps = 5;
max_registers_sz = 5;
NR = 2;
registers = [|'local_0', 's(0)', |'local_1', 'in_3'|];
dependencies = [|'i32.store8_2', 'i32.store_4', |'i32.store_4', 'i32.load16_s_6', |'i32.load16_s_6', 'i32.store_9', |'i32.store_9', 'i32.store8_11', |'i32.store8_11', 'call[function_index(0)]_12'|];
GET_ENUM = { GET1, GET2, GET3, GET4, GET5, GET6, GET7};
SET_ENUM = { SET1, SET2, SET3, SET4, SET5, SET6, SET7};
TEE_ENUM = { TEE1, TEE2, TEE3, TEE4, TEE5, TEE6, TEE7};
N = 6;
OP = { 'call[function_index(0)]_12', 'i32.store8_2', 'i32.store_4', 'i32.load16_s_6', 'i32.store_9', 'i32.store8_11' };
in_ops = [3, 2, 2, 1, 2, 2 ];
out_ops = [0, 0, 0, 1, 0, 0 ];
in1 = ['in_6', 'local_0', 'local_0', 'in_2', 'in_3', 'in_3' ];
in2 = ['in_7', 'in_0', 'in_1', '.', 'in_4', 'in_5' ];
in3 = ['in_8', '.', '.', '.', '.', '.' ];
out1 = ['.', '.', '.', 's(0)', '.', '.' ];
out2 = ['.', '.', '.', '.', '.', '.' ];
out3 = ['.', '.', '.', '.', '.', '.' ];
comm = [false, false, false, false, false, false ];
gas = [1, 1, 1, 1, 1, 1 ];
sz = [1, 1, 1, 1, 1, 1 ];
stor = [true, true, true, false, true, true ];
lb = [ 1, 1, 1, 1, 1, 1 ];
ub = [ 13, 13, 13, 13, 13, 13 ];
startstack = [ 'in_0', 'in_1', 'in_2', 'in_3', 'in_4', 'in_5', 'in_6', 'in_7', 'in_8', null, null, null, null, null, null ];
endstack = [ null, null, null, null, null, null, null, null, null, null, null, null, null, null, null ];
