webassembly/ejemplos_results/13/folder13_json_20.txt
value = 13;
fgas = [2, 1, 1, 1, 2, 1, 1, 1, 2, 1, 1, 1, 1];
fsize = [1, 1, 1, 1, 1, 1, 1, 1, 1, 1, 1, 1, 1];
states = 
[|    in_0, in_1, in_2, in_3, in_4, in_5, in_6, in_7, in_8, '.', '.', '.', '.', '.', '.'
 |    in_1, in_2, in_3, in_4, in_5, in_6, in_7, in_8,  '.', '.', '.', '.', '.', '.', '.'
 |    in_2, in_3, in_4, in_5, in_6, in_7, in_8,  '.',  '.', '.', '.', '.', '.', '.', '.'
 |  's(0)', in_3, in_4, in_5, in_6, in_7, in_8,  '.',  '.', '.', '.', '.', '.', '.', '.'
 |  's(0)', in_3, in_4, in_5, in_6, in_7, in_8,  '.',  '.', '.', '.', '.', '.', '.', '.'
 |    in_3, in_4, in_5, in_6, in_7, in_8,  '.',  '.',  '.', '.', '.', '.', '.', '.', '.'
 |    in_3, in_4, in_5, in_6, in_7, in_8,  '.',  '.',  '.', '.', '.', '.', '.', '.', '.'
 |    in_3, in_4, in_5, in_6, in_7, in_8,  '.',  '.',  '.', '.', '.', '.', '.', '.', '.'
 |    in_0, in_6, in_7, in_8,  '.',  '.',  '.',  '.',  '.', '.', '.', '.', '.', '.', '.'
 |    in_6, in_7, in_8,  '.',  '.',  '.',  '.',  '.',  '.', '.', '.', '.', '.', '.', '.'
 | local_0, in_1, in_0,  '.',  '.',  '.',  '.',  '.',  '.', '.', '.', '.', '.', '.', '.'
 |    in_3, in_5,  '.',  '.',  '.',  '.',  '.',  '.',  '.', '.', '.', '.', '.', '.', '.'
 | local_0, in_0,  '.',  '.',  '.',  '.',  '.',  '.',  '.', '.', '.', '.', '.', '.', '.'
 |     '.',  '.',  '.',  '.',  '.',  '.',  '.',  '.',  '.', '.', '.', '.', '.', '.', '.'
 |];
register_states = 
[| local_0, local_1, '.', '.', '.', '.', '.'
 | local_0, local_1, '.', '.', '.', '.', '.'
 | local_0,    in_1, '.', '.', '.', '.', '.'
 | local_0,    in_1, '.', '.', '.', '.', '.'
 |  's(0)',    in_1, '.', '.', '.', '.', '.'
 |  's(0)',    in_1, '.', '.', '.', '.', '.'
 |  's(0)',    in_3, '.', '.', '.', '.', '.'
 |  's(0)',    in_3, '.', '.', '.', '.', '.'
 |  's(0)',    in_3, '.', '.', '.', '.', '.'
 |  's(0)',    in_3, '.', '.', '.', '.', '.'
 |  's(0)',    in_3, '.', '.', '.', '.', '.'
 |  's(0)',    in_3, '.', '.', '.', '.', '.'
 |  's(0)',    in_3, '.', '.', '.', '.', '.'
 |  's(0)',    in_3, '.', '.', '.', '.', '.'
 |];
program = [POP, S(SET2), O('i32.load16_s_6'), TEE(TEE1), POP, TEE(TEE2), TEE(TEE2), O('i32.store_9'), POP, O('call[function_index(0)]_12'), O('i32.store_4'), O('i32.store8_11'), O('i32.store8_2')];
% time elapsed: 0.29 s
----------
value = 12;
fgas = [2, 1, 1, 2, 1, 1, 1, 1, 1, 1, 1, 1, 0];
fsize = [1, 1, 1, 1, 1, 1, 1, 1, 1, 1, 1, 1, 1];
states = 
[|    in_0,    in_1, in_2, in_3, in_4, in_5, in_6, in_7, in_8, '.', '.', '.', '.', '.', '.'
 |    in_1,    in_2, in_3, in_4, in_5, in_6, in_7, in_8,  '.', '.', '.', '.', '.', '.', '.'
 |    in_1,    in_2, in_3, in_4, in_5, in_6, in_7, in_8,  '.', '.', '.', '.', '.', '.', '.'
 |    in_2,    in_3, in_4, in_5, in_6, in_7, in_8,  '.',  '.', '.', '.', '.', '.', '.', '.'
 |    in_3,    in_4, in_5, in_6, in_7, in_8,  '.',  '.',  '.', '.', '.', '.', '.', '.', '.'
 |    in_3,    in_6, in_7, in_8,  '.',  '.',  '.',  '.',  '.', '.', '.', '.', '.', '.', '.'
 |    in_6,    in_7, in_8,  '.',  '.',  '.',  '.',  '.',  '.', '.', '.', '.', '.', '.', '.'
 |    in_2, local_0, in_0,  '.',  '.',  '.',  '.',  '.',  '.', '.', '.', '.', '.', '.', '.'
 |  's(0)', local_0, in_0,  '.',  '.',  '.',  '.',  '.',  '.', '.', '.', '.', '.', '.', '.'
 | local_0,    in_0,  '.',  '.',  '.',  '.',  '.',  '.',  '.', '.', '.', '.', '.', '.', '.'
 | local_0,    in_1,  '.',  '.',  '.',  '.',  '.',  '.',  '.', '.', '.', '.', '.', '.', '.'
 |    in_3,    in_5,  '.',  '.',  '.',  '.',  '.',  '.',  '.', '.', '.', '.', '.', '.', '.'
 |     '.',     '.',  '.',  '.',  '.',  '.',  '.',  '.',  '.', '.', '.', '.', '.', '.', '.'
 |     '.',     '.',  '.',  '.',  '.',  '.',  '.',  '.',  '.', '.', '.', '.', '.', '.', '.'
 |];
register_states = 
[| local_0, local_1, '.', '.', '.', '.', '.'
 | local_0, local_1, '.', '.', '.', '.', '.'
 | local_0,    in_1, '.', '.', '.', '.', '.'
 |    in_1,    in_1, '.', '.', '.', '.', '.'
 |    in_1,    in_1, '.', '.', '.', '.', '.'
 |    in_1,    in_1, '.', '.', '.', '.', '.'
 |    in_1,    in_3, '.', '.', '.', '.', '.'
 |    in_1,    in_3, '.', '.', '.', '.', '.'
 |    in_1,    in_3, '.', '.', '.', '.', '.'
 |  's(0)',    in_3, '.', '.', '.', '.', '.'
 |  's(0)',    in_3, '.', '.', '.', '.', '.'
 |  's(0)',    in_3, '.', '.', '.', '.', '.'
 |  's(0)',    in_3, '.', '.', '.', '.', '.'
 |  's(0)',    in_3, '.', '.', '.', '.', '.'
 |];
program = [POP, TEE(TEE2), S(SET1), POP, O('i32.store_9'), S(SET2), O('call[function_index(0)]_12'), O('i32.load16_s_6'), S(SET1), O('i32.store8_2'), O('i32.store_4'), O('i32.store8_11'), NOP];
% time elapsed: 0.47 s
----------
value = 11;
fgas = [2, 2, 1, 1, 1, 1, 1, 1, 1, 1, 1, 0, 0];
fsize = [1, 1, 1, 1, 1, 1, 1, 1, 1, 1, 1, 1, 1];
states = 
[|    in_0, in_1, in_2, in_3, in_4, in_5, in_6, in_7, in_8, '.', '.', '.', '.', '.', '.'
 |    in_1, in_2, in_3, in_4, in_5, in_6, in_7, in_8,  '.', '.', '.', '.', '.', '.', '.'
 |    in_2, in_3, in_4, in_5, in_6, in_7, in_8,  '.',  '.', '.', '.', '.', '.', '.', '.'
 |  's(0)', in_3, in_4, in_5, in_6, in_7, in_8,  '.',  '.', '.', '.', '.', '.', '.', '.'
 |    in_3, in_4, in_5, in_6, in_7, in_8,  '.',  '.',  '.', '.', '.', '.', '.', '.', '.'
 |    in_3, in_6, in_7, in_8,  '.',  '.',  '.',  '.',  '.', '.', '.', '.', '.', '.', '.'
 |    in_6, in_7, in_8,  '.',  '.',  '.',  '.',  '.',  '.', '.', '.', '.', '.', '.', '.'
 |    in_3, in_4, in_0,  '.',  '.',  '.',  '.',  '.',  '.', '.', '.', '.', '.', '.', '.'
 |    in_3, in_5,  '.',  '.',  '.',  '.',  '.',  '.',  '.', '.', '.', '.', '.', '.', '.'
 | local_0, in_1,  '.',  '.',  '.',  '.',  '.',  '.',  '.', '.', '.', '.', '.', '.', '.'
 | local_0, in_0,  '.',  '.',  '.',  '.',  '.',  '.',  '.', '.', '.', '.', '.', '.', '.'
 |     '.',  '.',  '.',  '.',  '.',  '.',  '.',  '.',  '.', '.', '.', '.', '.', '.', '.'
 |     '.',  '.',  '.',  '.',  '.',  '.',  '.',  '.',  '.', '.', '.', '.', '.', '.', '.'
 |     '.',  '.',  '.',  '.',  '.',  '.',  '.',  '.',  '.', '.', '.', '.', '.', '.', '.'
 |];
register_states = 
[| local_0, local_1, '.', '.', '.', '.', '.'
 | local_0, local_1, '.', '.', '.', '.', '.'
 | local_0, local_1, '.', '.', '.', '.', '.'
 | local_0, local_1, '.', '.', '.', '.', '.'
 |  's(0)', local_1, '.', '.', '.', '.', '.'
 |  's(0)', local_1, '.', '.', '.', '.', '.'
 |  's(0)',    in_3, '.', '.', '.', '.', '.'
 |  's(0)',    in_3, '.', '.', '.', '.', '.'
 |  's(0)',    in_3, '.', '.', '.', '.', '.'
 |  's(0)',    in_3, '.', '.', '.', '.', '.'
 |  's(0)',    in_3, '.', '.', '.', '.', '.'
 |  's(0)',    in_3, '.', '.', '.', '.', '.'
 |  's(0)',    in_3, '.', '.', '.', '.', '.'
 |  's(0)',    in_3, '.', '.', '.', '.', '.'
 |];
program = [POP, POP, O('i32.load16_s_6'), S(SET1), O('i32.store_9'), S(SET2), O('call[function_index(0)]_12'), O('i32.store_9'), O('i32.store8_11'), O('i32.store_4'), O('i32.store8_2'), NOP, NOP];
% time elapsed: 0.51 s
----------
value = 10;
fgas = [2, 2, 1, 1, 1, 1, 1, 1, 1, 1, 0, 0, 0];
fsize = [1, 1, 1, 1, 1, 1, 1, 1, 1, 1, 1, 1, 1];
states = 
[|    in_0, in_1, in_2, in_3, in_4, in_5, in_6, in_7, in_8, '.', '.', '.', '.', '.', '.'
 |    in_1, in_2, in_3, in_4, in_5, in_6, in_7, in_8,  '.', '.', '.', '.', '.', '.', '.'
 |    in_2, in_3, in_4, in_5, in_6, in_7, in_8,  '.',  '.', '.', '.', '.', '.', '.', '.'
 |  's(0)', in_3, in_4, in_5, in_6, in_7, in_8,  '.',  '.', '.', '.', '.', '.', '.', '.'
 |    in_3, in_4, in_5, in_6, in_7, in_8,  '.',  '.',  '.', '.', '.', '.', '.', '.', '.'
 |    in_3, in_6, in_7, in_8,  '.',  '.',  '.',  '.',  '.', '.', '.', '.', '.', '.', '.'
 |    in_6, in_7, in_8,  '.',  '.',  '.',  '.',  '.',  '.', '.', '.', '.', '.', '.', '.'
 | local_0, in_0, in_0,  '.',  '.',  '.',  '.',  '.',  '.', '.', '.', '.', '.', '.', '.'
 |    in_3, in_5,  '.',  '.',  '.',  '.',  '.',  '.',  '.', '.', '.', '.', '.', '.', '.'
 | local_0, in_1,  '.',  '.',  '.',  '.',  '.',  '.',  '.', '.', '.', '.', '.', '.', '.'
 |     '.',  '.',  '.',  '.',  '.',  '.',  '.',  '.',  '.', '.', '.', '.', '.', '.', '.'
 |     '.',  '.',  '.',  '.',  '.',  '.',  '.',  '.',  '.', '.', '.', '.', '.', '.', '.'
 |     '.',  '.',  '.',  '.',  '.',  '.',  '.',  '.',  '.', '.', '.', '.', '.', '.', '.'
 |     '.',  '.',  '.',  '.',  '.',  '.',  '.',  '.',  '.', '.', '.', '.', '.', '.', '.'
 |];
register_states = 
[| local_0, local_1, '.', '.', '.', '.', '.'
 | local_0, local_1, '.', '.', '.', '.', '.'
 | local_0, local_1, '.', '.', '.', '.', '.'
 | local_0, local_1, '.', '.', '.', '.', '.'
 |  's(0)', local_1, '.', '.', '.', '.', '.'
 |  's(0)', local_1, '.', '.', '.', '.', '.'
 |  's(0)',    in_3, '.', '.', '.', '.', '.'
 |  's(0)',    in_3, '.', '.', '.', '.', '.'
 |  's(0)',    in_3, '.', '.', '.', '.', '.'
 |  's(0)',    in_3, '.', '.', '.', '.', '.'
 |  's(0)',    in_3, '.', '.', '.', '.', '.'
 |  's(0)',    in_3, '.', '.', '.', '.', '.'
 |  's(0)',    in_3, '.', '.', '.', '.', '.'
 |  's(0)',    in_3, '.', '.', '.', '.', '.'
 |];
program = [POP, POP, O('i32.load16_s_6'), S(SET1), O('i32.store_9'), S(SET2), O('call[function_index(0)]_12'), O('i32.store8_2'), O('i32.store8_11'), O('i32.store_4'), NOP, NOP, NOP];
% time elapsed: 0.51 s
----------
==========
% time elapsed: 0.52 s
% [value > 9]
